(set-logic HORN)
(declare-datatypes ((Nat_208 0)) (((Z_624 ) (S_194 (unS_226 Nat_208)))))
(declare-fun diseqNat_208 (Nat_208 Nat_208) Bool)
(declare-fun unS_227 (Nat_208 Nat_208) Bool)
(declare-fun isZ_186 (Nat_208) Bool)
(declare-fun isS_186 (Nat_208) Bool)
(assert (forall ((x_15019 Nat_208))
	(unS_227 x_15019 (S_194 x_15019))))
(assert (isZ_186 Z_624))
(assert (forall ((x_15021 Nat_208))
	(isS_186 (S_194 x_15021))))
(assert (forall ((x_15022 Nat_208))
	(diseqNat_208 Z_624 (S_194 x_15022))))
(assert (forall ((x_15023 Nat_208))
	(diseqNat_208 (S_194 x_15023) Z_624)))
(assert (forall ((x_15024 Nat_208) (x_15025 Nat_208))
	(=> (diseqNat_208 x_15024 x_15025)
	    (diseqNat_208 (S_194 x_15024) (S_194 x_15025)))))
(declare-fun add_118 (Nat_208 Nat_208 Nat_208) Bool)
(declare-fun minus_115 (Nat_208 Nat_208 Nat_208) Bool)
(declare-fun le_113 (Nat_208 Nat_208) Bool)
(declare-fun ge_113 (Nat_208 Nat_208) Bool)
(declare-fun lt_116 (Nat_208 Nat_208) Bool)
(declare-fun gt_114 (Nat_208 Nat_208) Bool)
(declare-fun mult_113 (Nat_208 Nat_208 Nat_208) Bool)
(declare-fun div_113 (Nat_208 Nat_208 Nat_208) Bool)
(declare-fun mod_113 (Nat_208 Nat_208 Nat_208) Bool)
(assert (forall ((y_584 Nat_208))
	(add_118 y_584 Z_624 y_584)))
(assert (forall ((x_15011 Nat_208) (y_584 Nat_208) (r_130 Nat_208))
	(=> (add_118 r_130 x_15011 y_584)
	    (add_118 (S_194 r_130) (S_194 x_15011) y_584))))
(assert (forall ((y_584 Nat_208))
	(minus_115 Z_624 Z_624 y_584)))
(assert (forall ((x_15011 Nat_208) (y_584 Nat_208) (r_130 Nat_208))
	(=> (minus_115 r_130 x_15011 y_584)
	    (minus_115 (S_194 r_130) (S_194 x_15011) y_584))))
(assert (forall ((y_584 Nat_208))
	(le_113 Z_624 y_584)))
(assert (forall ((x_15011 Nat_208) (y_584 Nat_208))
	(=> (le_113 x_15011 y_584)
	    (le_113 (S_194 x_15011) (S_194 y_584)))))
(assert (forall ((y_584 Nat_208))
	(ge_113 y_584 Z_624)))
(assert (forall ((x_15011 Nat_208) (y_584 Nat_208))
	(=> (ge_113 x_15011 y_584)
	    (ge_113 (S_194 x_15011) (S_194 y_584)))))
(assert (forall ((y_584 Nat_208))
	(lt_116 Z_624 (S_194 y_584))))
(assert (forall ((x_15011 Nat_208) (y_584 Nat_208))
	(=> (lt_116 x_15011 y_584)
	    (lt_116 (S_194 x_15011) (S_194 y_584)))))
(assert (forall ((y_584 Nat_208))
	(gt_114 (S_194 y_584) Z_624)))
(assert (forall ((x_15011 Nat_208) (y_584 Nat_208))
	(=> (gt_114 x_15011 y_584)
	    (gt_114 (S_194 x_15011) (S_194 y_584)))))
(assert (forall ((y_584 Nat_208))
	(mult_113 Z_624 Z_624 y_584)))
(assert (forall ((x_15011 Nat_208) (y_584 Nat_208) (r_130 Nat_208) (z_625 Nat_208))
	(=>	(and (mult_113 r_130 x_15011 y_584)
			(add_118 z_625 r_130 y_584))
		(mult_113 z_625 (S_194 x_15011) y_584))))
(assert (forall ((x_15011 Nat_208) (y_584 Nat_208))
	(=> (lt_116 x_15011 y_584)
	    (div_113 Z_624 x_15011 y_584))))
(assert (forall ((x_15011 Nat_208) (y_584 Nat_208) (r_130 Nat_208) (z_625 Nat_208))
	(=>	(and (ge_113 x_15011 y_584)
			(minus_115 z_625 x_15011 y_584)
			(div_113 r_130 z_625 y_584))
		(div_113 (S_194 r_130) x_15011 y_584))))
(assert (forall ((x_15011 Nat_208) (y_584 Nat_208))
	(=> (lt_116 x_15011 y_584)
	    (mod_113 x_15011 x_15011 y_584))))
(assert (forall ((x_15011 Nat_208) (y_584 Nat_208) (r_130 Nat_208) (z_625 Nat_208))
	(=>	(and (ge_113 x_15011 y_584)
			(minus_115 z_625 x_15011 y_584)
			(mod_113 r_130 z_625 y_584))
		(mod_113 r_130 x_15011 y_584))))
(declare-datatypes ((list_85 0)) (((nil_91 ) (cons_85 (head_170 Nat_208) (tail_170 list_85)))))
(declare-fun diseqlist_85 (list_85 list_85) Bool)
(declare-fun head_171 (Nat_208 list_85) Bool)
(declare-fun tail_171 (list_85 list_85) Bool)
(declare-fun isnil_91 (list_85) Bool)
(declare-fun iscons_85 (list_85) Bool)
(assert (forall ((x_15027 Nat_208) (x_15028 list_85))
	(head_171 x_15027 (cons_85 x_15027 x_15028))))
(assert (forall ((x_15027 Nat_208) (x_15028 list_85))
	(tail_171 x_15028 (cons_85 x_15027 x_15028))))
(assert (isnil_91 nil_91))
(assert (forall ((x_15030 Nat_208) (x_15031 list_85))
	(iscons_85 (cons_85 x_15030 x_15031))))
(assert (forall ((x_15032 Nat_208) (x_15033 list_85))
	(diseqlist_85 nil_91 (cons_85 x_15032 x_15033))))
(assert (forall ((x_15034 Nat_208) (x_15035 list_85))
	(diseqlist_85 (cons_85 x_15034 x_15035) nil_91)))
(assert (forall ((x_15036 Nat_208) (x_15037 list_85) (x_15038 Nat_208) (x_15039 list_85))
	(=> (diseqNat_208 x_15036 x_15038)
	    (diseqlist_85 (cons_85 x_15036 x_15037) (cons_85 x_15038 x_15039)))))
(assert (forall ((x_15036 Nat_208) (x_15037 list_85) (x_15038 Nat_208) (x_15039 list_85))
	(=> (diseqlist_85 x_15037 x_15039)
	    (diseqlist_85 (cons_85 x_15036 x_15037) (cons_85 x_15038 x_15039)))))
(declare-datatypes ((pair_26 0)) (((pair_27 (projpair_52 list_85) (projpair_53 list_85)))))
(declare-fun diseqpair_13 (pair_26 pair_26) Bool)
(declare-fun projpair_54 (list_85 pair_26) Bool)
(declare-fun projpair_55 (list_85 pair_26) Bool)
(declare-fun ispair_13 (pair_26) Bool)
(assert (forall ((x_15040 list_85) (x_15041 list_85))
	(projpair_54 x_15040 (pair_27 x_15040 x_15041))))
(assert (forall ((x_15040 list_85) (x_15041 list_85))
	(projpair_55 x_15041 (pair_27 x_15040 x_15041))))
(assert (forall ((x_15043 list_85) (x_15044 list_85))
	(ispair_13 (pair_27 x_15043 x_15044))))
(assert (forall ((x_15045 list_85) (x_15046 list_85) (x_15047 list_85) (x_15048 list_85))
	(=> (diseqlist_85 x_15045 x_15047)
	    (diseqpair_13 (pair_27 x_15045 x_15046) (pair_27 x_15047 x_15048)))))
(assert (forall ((x_15045 list_85) (x_15046 list_85) (x_15047 list_85) (x_15048 list_85))
	(=> (diseqlist_85 x_15046 x_15048)
	    (diseqpair_13 (pair_27 x_15045 x_15046) (pair_27 x_15047 x_15048)))))
(declare-fun third_1 (Nat_208 Nat_208) Bool)
(assert (third_1 Z_624 (S_194 (S_194 Z_624))))
(assert (=> (diseqNat_208 (S_194 Z_624) (S_194 (S_194 Z_624)))
	    (third_1 Z_624 (S_194 Z_624))))
(assert (third_1 Z_624 (S_194 (S_194 Z_624))))
(assert (=>	(and (diseqNat_208 Z_624 (S_194 (S_194 Z_624)))
			(diseqNat_208 Z_624 (S_194 Z_624)))
		(third_1 Z_624 Z_624)))
(assert (third_1 Z_624 (S_194 (S_194 Z_624))))
(assert (=> (diseqNat_208 (S_194 Z_624) (S_194 (S_194 Z_624)))
	    (third_1 Z_624 (S_194 Z_624))))
(assert (third_1 Z_624 (S_194 (S_194 Z_624))))
(assert (forall ((x_15013 Nat_208) (x_14954 Nat_208) (x_14955 Nat_208) (x_14930 Nat_208))
	(=>	(and (diseqNat_208 x_14930 (S_194 (S_194 Z_624)))
			(diseqNat_208 x_14930 (S_194 Z_624))
			(diseqNat_208 x_14930 Z_624)
			(third_1 x_14955 x_15013)
			(minus_115 x_15013 x_14930 (S_194 (S_194 (S_194 Z_624))))
			(add_118 x_14954 (S_194 Z_624) x_14955))
		(third_1 x_14954 x_14930))))
(declare-fun take_16 (list_85 Nat_208 list_85) Bool)
(assert (forall ((x_14931 Nat_208) (y_574 list_85))
	(=> (le_113 x_14931 Z_624)
	    (take_16 nil_91 x_14931 y_574))))
(assert (forall ((x_15014 Nat_208) (x_14958 list_85) (z_619 Nat_208) (xs_185 list_85) (x_14931 Nat_208))
	(=>	(and (gt_114 x_14931 Z_624)
			(take_16 x_14958 x_15014 xs_185)
			(minus_115 x_15014 x_14931 (S_194 Z_624)))
		(take_16 (cons_85 z_619 x_14958) x_14931 (cons_85 z_619 xs_185)))))
(assert (forall ((x_14931 Nat_208) (y_574 list_85))
	(=> (le_113 x_14931 Z_624)
	    (take_16 nil_91 x_14931 y_574))))
(assert (forall ((x_14931 Nat_208))
	(=> (gt_114 x_14931 Z_624)
	    (take_16 nil_91 x_14931 nil_91))))
(declare-fun sort_7 (list_85 Nat_208 Nat_208) Bool)
(assert (forall ((x_14932 Nat_208) (y_575 Nat_208))
	(=> (le_113 x_14932 y_575)
	    (sort_7 (cons_85 x_14932 (cons_85 y_575 nil_91)) x_14932 y_575))))
(assert (forall ((x_14932 Nat_208) (y_575 Nat_208))
	(=> (gt_114 x_14932 y_575)
	    (sort_7 (cons_85 y_575 (cons_85 x_14932 nil_91)) x_14932 y_575))))
(declare-fun length_3 (Nat_208 list_85) Bool)
(assert (forall ((x_14963 Nat_208) (x_14964 Nat_208) (y_576 Nat_208) (l_5 list_85))
	(=>	(and (length_3 x_14964 l_5)
			(add_118 x_14963 (S_194 Z_624) x_14964))
		(length_3 x_14963 (cons_85 y_576 l_5)))))
(assert (length_3 Z_624 nil_91))
(declare-fun drop_18 (list_85 Nat_208 list_85) Bool)
(assert (forall ((x_14966 list_85) (x_14934 Nat_208))
	(=> (le_113 x_14934 Z_624)
	    (drop_18 x_14966 x_14934 x_14966))))
(assert (forall ((x_15016 Nat_208) (x_14967 list_85) (z_620 Nat_208) (xs_186 list_85) (x_14934 Nat_208))
	(=>	(and (gt_114 x_14934 Z_624)
			(drop_18 x_14967 x_15016 xs_186)
			(minus_115 x_15016 x_14934 (S_194 Z_624)))
		(drop_18 x_14967 x_14934 (cons_85 z_620 xs_186)))))
(assert (forall ((x_14969 list_85) (x_14934 Nat_208))
	(=> (le_113 x_14934 Z_624)
	    (drop_18 x_14969 x_14934 x_14969))))
(assert (forall ((x_14934 Nat_208))
	(=> (gt_114 x_14934 Z_624)
	    (drop_18 nil_91 x_14934 nil_91))))
(declare-fun splitAt_2 (pair_26 Nat_208 list_85) Bool)
(assert (forall ((x_14972 list_85) (x_14973 list_85) (x_14935 Nat_208) (y_578 list_85))
	(=>	(and (take_16 x_14972 x_14935 y_578)
			(drop_18 x_14973 x_14935 y_578))
		(splitAt_2 (pair_27 x_14972 x_14973) x_14935 y_578))))
(declare-fun count_13 (Nat_208 Nat_208 list_85) Bool)
(assert (forall ((x_14974 Nat_208) (x_14975 Nat_208) (ys_48 list_85) (x_14936 Nat_208))
	(=>	(and (count_13 x_14975 x_14936 ys_48)
			(add_118 x_14974 (S_194 Z_624) x_14975))
		(count_13 x_14974 x_14936 (cons_85 x_14936 ys_48)))))
(assert (forall ((x_14976 Nat_208) (z_621 Nat_208) (ys_48 list_85) (x_14936 Nat_208))
	(=>	(and (diseqNat_208 x_14936 z_621)
			(count_13 x_14976 x_14936 ys_48))
		(count_13 x_14976 x_14936 (cons_85 z_621 ys_48)))))
(assert (forall ((x_14936 Nat_208))
	(count_13 Z_624 x_14936 nil_91)))
(declare-fun x_14937 (list_85 list_85 list_85) Bool)
(assert (forall ((x_14980 list_85) (z_622 Nat_208) (xs_187 list_85) (y_580 list_85))
	(=> (x_14937 x_14980 xs_187 y_580)
	    (x_14937 (cons_85 z_622 x_14980) (cons_85 z_622 xs_187) y_580))))
(assert (forall ((x_14981 list_85))
	(x_14937 x_14981 nil_91 x_14981)))
(declare-fun reverse_2 (list_85 list_85) Bool)
(assert (forall ((x_14982 list_85) (x_14983 list_85) (y_581 Nat_208) (xs_188 list_85))
	(=>	(and (reverse_2 x_14983 xs_188)
			(x_14937 x_14982 x_14983 (cons_85 y_581 nil_91)))
		(reverse_2 x_14982 (cons_85 y_581 xs_188)))))
(assert (reverse_2 nil_91 nil_91))
(declare-fun nstoogesort_3 (list_85 list_85) Bool)
(declare-fun nstoogesort_4 (list_85 list_85) Bool)
(declare-fun nstoogesort_5 (list_85 list_85) Bool)
(assert (forall ((x_14990 list_85) (x_14991 list_85) (x_14992 list_85) (x_14986 Nat_208) (x_14987 Nat_208) (x_14988 list_85) (ys_49 list_85) (zs_9 list_85) (x_14940 list_85))
	(=>	(and (nstoogesort_4 x_14991 zs_9)
			(reverse_2 x_14992 ys_49)
			(x_14937 x_14990 x_14991 x_14992)
			(length_3 x_14986 x_14940)
			(third_1 x_14987 x_14986)
			(reverse_2 x_14988 x_14940)
			(splitAt_2 (pair_27 ys_49 zs_9) x_14987 x_14988))
		(nstoogesort_3 x_14990 x_14940))))
(assert (forall ((x_14994 list_85) (x_14995 list_85) (x_14996 list_85) (x_14943 Nat_208) (x_14944 list_85) (y_583 Nat_208) (y_582 Nat_208))
	(=>	(and (nstoogesort_3 x_14995 (cons_85 y_582 (cons_85 y_583 (cons_85 x_14943 x_14944))))
			(nstoogesort_5 x_14996 x_14995)
			(nstoogesort_3 x_14994 x_14996))
		(nstoogesort_4 x_14994 (cons_85 y_582 (cons_85 y_583 (cons_85 x_14943 x_14944)))))))
(assert (forall ((x_14998 list_85) (y_583 Nat_208) (y_582 Nat_208))
	(=> (sort_7 x_14998 y_582 y_583)
	    (nstoogesort_4 x_14998 (cons_85 y_582 (cons_85 y_583 nil_91))))))
(assert (forall ((y_582 Nat_208))
	(nstoogesort_4 (cons_85 y_582 nil_91) (cons_85 y_582 nil_91))))
(assert (nstoogesort_4 nil_91 nil_91))
(assert (forall ((x_15005 list_85) (x_15006 list_85) (x_15002 Nat_208) (x_15003 Nat_208) (ys_50 list_85) (zs_10 list_85) (x_14945 list_85))
	(=>	(and (nstoogesort_4 x_15006 zs_10)
			(x_14937 x_15005 ys_50 x_15006)
			(length_3 x_15002 x_14945)
			(third_1 x_15003 x_15002)
			(splitAt_2 (pair_27 ys_50 zs_10) x_15003 x_14945))
		(nstoogesort_5 x_15005 x_14945))))
(assert (forall ((x_15008 list_85) (x_15009 Nat_208) (x_15010 Nat_208) (x_14946 Nat_208) (xs_189 list_85))
	(=>	(and true
			(diseqNat_208 x_15009 x_15010)
			(nstoogesort_4 x_15008 xs_189)
			(count_13 x_15009 x_14946 x_15008)
			(count_13 x_15010 x_14946 xs_189))
		false)))
(check-sat)
